20
426375 928904
91504 170787
915455 1689092
60292 117966
337974 632580
336679 731869
566396 1185747
425705 923646
836379 1617156
27713 52263
779627 1501384
207304 428275
174254 368772
703660 1513686
421993 918075
450456 903139
828590 1588130
121896 220241
719160 1451995
931334 1863885
4681373